problems/csplib-prob015/SchursLemma-models/noch/O2/lingeling/model_1_3-6-15-solution000001.solution
language Essence 1.3

letting boxes be partition({1, 3, 5, 7, 9, 13, 15}, {2, 12}, {4}, {6}, {8}, {10, 11, 14})
